NAME: ACTUAL_TOURS/amz1892
TYPE: TOUR
COMMENT: RouteID_c8af82e4-8ea0-4bec-b454-ffe447d65d0a
DIMENSION: 135
TOUR_SECTION
19
113
117
23
72
129
17
73
16
123
121
102
109
108
75
12
81
10
65
126
85
106
1
66
35
107
42
54
63
51
37
99
49
112
64
6
41
45
78
74
69
76
97
27
14
61
86
96
120
118
94
95
132
70
79
44
26
24
83
20
18
59
105
38
11
82
9
29
13
56
130
32
84
3
111
115
33
93
131
127
52
21
47
125
98
57
103
87
46
53
114
36
50
104
25
60
40
88
43
135
100
55
119
110
68
31
30
34
28
128
133
80
90
116
2
101
71
4
39
124
91
8
48
5
62
77
92
67
7
58
15
89
134
122
22
-1
EOF
